c
c start with comments
c
p cnf 15 31
10 5 -14 0
8 2 0
6 -7 0
5 -7 8 -5 0
-12 -13 -10 5 12 0
-11 -9 5 0
15 -14 13 -11 0
7 -14 5 -1 4 0
15 -4 2 9 14 9 0
15 10 9 0
-8 -12 12 2 0
6 -12 3 0
12 -12 14 7 2 0
-2 -9 0
10 -15 -1 0
-11 14 9 -9 0
-11 3 1 7 0
3 5 0
-8 -5 -5 14 0
5 4 6 -8 13 0
2 10 15 0
10 6 0
-12 4 6 0
-7 10 7 -4 0
-3 -7 0
-3 -13 -3 0
14 8 3 -3 0
-7 14 -13 11 0
-8 -14 -6 0
-9 11 -10 -11 -11 0
4 -11 11 -14 -1 0